Route 1: 0 36 21 5 82 16 8 44 52 49 0
Route 2: 0 14 90 33 51 12 83 26 24 88 0
Route 3: 0 39 60 71 78 67 7 6 0
Route 4: 0 23 56 3 97 96 32 89 57 43 68 0
Route 5: 0 42 55 48 69 100 46 53 30 34 92 62 0
Route 6: 0 81 47 94 54 73 61 0
Route 7: 0 85 28 74 31 70 18 58 79 84 66 87 0
Route 8: 0 93 59 63 17 11 35 0
Route 9: 0 22 10 64 27 50 15 45 20 1 72 0
Route 10: 0 19 2 65 86 4 9 91 0
Route 11: 0 13 29 99 76 77 37 98 0
Route 12: 0 40 75 95 25 41 80 38 0
